184 21 192 110 102 57 127 28 190 196 198 107 128 35 175 158 74 66 131 6 170 60 111 73 197 194 100 189 120 22 41 109 167 185 37 148 33 80 129 174 179 119 137 51 65 7 45 145 124 108 133 156 193 79 75 126 160 134 71 56 30 77 98 44 165 32 67 13 186 64 173 159 85 95 106 183 157 151 15 62 153 53 90 76 42 3 154 63 149 58 5 39 82 2 176 4 115 101 8 9 141 19 24 17 84 142 188 81 182 103 105 114 11 27 46 132 163 113 181 20 55 150 94 147 130 162 25 86 112 54 177 116 91 140 47 143 29 99 1 191 50 118 36 34 61 195 18 135 144 117 123 52 59 43 92 122 121 70 187 38 72 14 68 171 136 83 40 164 146 78 180 12 178 87 23 26 0 49 168 125 199 155 161 93 31 104 96 166 139 16 89 10 88 138 97 169 48 69 152 172